!DLPNO-CCSD(T) cc-pVTZ cc-pVTZ/C
%maxcore 6000
%pal
nprocs YYYYYY
end
%base "tmp"
* xyz XXXXXX
