!DLPNO-CCSD(T)-F12 cc-pVTZ-F12 cc-pVTZ-F12-CABS cc-pVQZ/C
%maxcore 6000
%pal
nprocs YYYYYY
end
%base "tmp"
* xyz XXXXXX
