!DLPNO-CCSD(T) aug-cc-pVTZ aug-cc-pVTZ/C
%maxcore 6000
%pal
nprocs YYYYYY
end
%base "tmp"
* xyz XXXXXX
