!CCSD(T) aug-cc-pVQZ
%maxcore 6000
%pal
nprocs YYYYYY
end
%base "tmp"
* xyz XXXXXX
