!DLPNO-CCSD(T) Extrapolate(2/3,aug-cc) aug-cc-pVTZ/C
%maxcore 6000
%pal
nprocs YYYYYY
end
%base "tmp"
* xyz XXXXXX
